30
1 0 91
2 0 75
2 1 37
3 0 9
3 1 48
3 2 114
4 0 112
4 1 29
4 2 24
4 3 2
5 0 92
5 1 55
5 2 8
5 3 116
5 4 69
6 0 85
6 1 15
6 2 74
6 3 3
6 4 119
6 5 51
7 0 12
7 1 20
7 2 2
7 3 103
7 4 35
7 5 79
7 6 58
8 0 65
8 1 100
8 2 44
8 3 60
8 4 4
8 5 10
8 6 74
8 7 107
9 0 7
9 1 57
9 2 23
9 3 93
9 4 89
9 5 113
9 6 88
9 7 51
9 8 48
10 0 68
10 1 45
10 2 45
10 3 53
10 4 56
10 5 66
10 6 43
10 7 120
10 8 76
10 9 44
11 0 43
11 1 19
11 2 33
11 3 12
11 4 7
11 5 11
11 6 94
11 7 58
11 8 43
11 9 48
11 10 56
12 0 9
12 1 87
12 2 52
12 3 74
12 4 86
12 5 75
12 6 48
12 7 73
12 8 106
12 9 35
12 10 75
12 11 120
13 0 75
13 1 59
13 2 14
13 3 107
13 4 10
13 5 13
13 6 51
13 7 13
13 8 119
13 9 94
13 10 55
13 11 91
13 12 85
14 0 90
14 1 69
14 2 46
14 3 57
14 4 89
14 5 43
14 6 88
14 7 7
14 8 73
14 9 80
14 10 93
14 11 4
14 12 105
14 13 4
15 0 86
15 1 33
15 2 75
15 3 55
15 4 96
15 5 50
15 6 25
15 7 9
15 8 56
15 9 49
15 10 94
15 11 42
15 12 117
15 13 41
15 14 75
16 0 94
16 1 71
16 2 37
16 3 94
16 4 27
16 5 5
16 6 95
16 7 61
16 8 33
16 9 79
16 10 116
16 11 50
16 12 49
16 13 69
16 14 114
16 15 57
17 0 100
17 1 102
17 2 85
17 3 19
17 4 14
17 5 42
17 6 39
17 7 55
17 8 14
17 9 91
17 10 95
17 11 57
17 12 109
17 13 15
17 14 56
17 15 102
17 16 60
18 0 86
18 1 111
18 2 37
18 3 83
18 4 22
18 5 104
18 6 119
18 7 39
18 8 26
18 9 20
18 10 39
18 11 88
18 12 30
18 13 55
18 14 87
18 15 36
18 16 110
18 17 80
19 0 36
19 1 21
19 2 28
19 3 41
19 4 39
19 5 92
19 6 91
19 7 108
19 8 30
19 9 68
19 10 33
19 11 4
19 12 50
19 13 23
19 14 72
19 15 88
19 16 95
19 17 116
19 18 80
20 0 117
20 1 45
20 2 46
20 3 120
20 4 104
20 5 18
20 6 2
20 7 12
20 8 78
20 9 75
20 10 9
20 11 65
20 12 27
20 13 51
20 14 61
20 15 82
20 16 93
20 17 54
20 18 27
20 19 31
21 0 87
21 1 65
21 2 10
21 3 46
21 4 31
21 5 87
21 6 67
21 7 74
21 8 110
21 9 49
21 10 36
21 11 26
21 12 24
21 13 16
21 14 111
21 15 75
21 16 4
21 17 94
21 18 102
21 19 103
21 20 71
22 0 38
22 1 110
22 2 56
22 3 111
22 4 45
22 5 25
22 6 120
22 7 20
22 8 58
22 9 29
22 10 35
22 11 53
22 12 68
22 13 46
22 14 7
22 15 97
22 16 120
22 17 44
22 18 58
22 19 74
22 20 58
22 21 9
23 0 95
23 1 30
23 2 51
23 3 116
23 4 15
23 5 36
23 6 75
23 7 115
23 8 14
23 9 34
23 10 55
23 11 67
23 12 116
23 13 87
23 14 96
23 15 54
23 16 109
23 17 21
23 18 53
23 19 4
23 20 60
23 21 44
23 22 88
24 0 57
24 1 117
24 2 87
24 3 85
24 4 38
24 5 74
24 6 96
24 7 105
24 8 89
24 9 120
24 10 56
24 11 58
24 12 109
24 13 44
24 14 105
24 15 112
24 16 14
24 17 86
24 18 61
24 19 80
24 20 76
24 21 27
24 22 101
24 23 74
25 0 52
25 1 2
25 2 60
25 3 16
25 4 23
25 5 69
25 6 99
25 7 4
25 8 41
25 9 31
25 10 34
25 11 113
25 12 114
25 13 73
25 14 25
25 15 46
25 16 86
25 17 63
25 18 78
25 19 5
25 20 61
25 21 55
25 22 54
25 23 35
25 24 3
26 0 21
26 1 94
26 2 107
26 3 70
26 4 97
26 5 89
26 6 43
26 7 31
26 8 22
26 9 95
26 10 69
26 11 72
26 12 77
26 13 9
26 14 54
26 15 106
26 16 107
26 17 113
26 18 104
26 19 68
26 20 67
26 21 26
26 22 18
26 23 34
26 24 63
26 25 1
27 0 89
27 1 89
27 2 18
27 3 10
27 4 114
27 5 27
27 6 7
27 7 28
27 8 100
27 9 67
27 10 119
27 11 117
27 12 77
27 13 104
27 14 114
27 15 65
27 16 45
27 17 39
27 18 83
27 19 27
27 20 47
27 21 95
27 22 19
27 23 30
27 24 11
27 25 18
27 26 66
28 0 95
28 1 11
28 2 61
28 3 2
28 4 5
28 5 64
28 6 88
28 7 31
28 8 17
28 9 36
28 10 3
28 11 52
28 12 64
28 13 44
28 14 39
28 15 27
28 16 12
28 17 62
28 18 111
28 19 112
28 20 119
28 21 20
28 22 61
28 23 113
28 24 15
28 25 8
28 26 54
28 27 120
29 0 84
29 1 10
29 2 28
29 3 118
29 4 41
29 5 32
29 6 15
29 7 37
29 8 56
29 9 7
29 10 78
29 11 4
29 12 20
29 13 27
29 14 46
29 15 29
29 16 92
29 17 110
29 18 20
29 19 60
29 20 76
29 21 110
29 22 87
29 23 27
29 24 7
29 25 117
29 26 37
29 27 35
29 28 30
